; benchmark generated from python API
(set-info :status unknown)
(declare-fun S_2 () Real)
(declare-fun L_2 () Real)
(declare-fun A_2 () Real)
(declare-fun L_3 () Real)
(declare-fun S_3 () Real)
(declare-fun A_3 () Real)
(declare-fun L_1 () Real)
(declare-fun S_1 () Real)
(declare-fun A_1 () Real)
(declare-fun L_0 () Real)
(declare-fun S_0 () Real)
(declare-fun A_0 () Real)
(declare-fun S_4 () Real)
(declare-fun A_4 () Real)
(declare-fun A_5 () Real)
(declare-fun loss_rate_tol () Real)
(assert
 (let (($x39 (>= L_0 0.0)))
 (let (($x145462 (<= 0.0 (+ (* (/ 3.0 4.0) A_4) (* (- (/ 3.0 4.0)) A_5) (* (- 1.0) A_0) S_3 L_0))))
 (let (($x145463 (not $x145462)))
 (let ((?x308 (* (- 1.0) L_2)))
 (let ((?x422 (* (- 1.0) S_2)))
 (let ((?x460 (* (- 1.0) A_5)))
 (let (($x139448 (not (<= 0.0 (+ A_4 ?x460 A_2 ?x422 ?x308 loss_rate_tol)))))
 (let (($x134306 (not (<= 0.0 loss_rate_tol))))
 (let (($x143963 (<= 0.0 (+ (* (/ 1.0 2.0) A_4) (* (- (/ 1.0 2.0)) A_5) S_1 (* (- 1.0) S_0)))))
 (let (($x143964 (not $x143963)))
 (let ((?x449 (* (- 1.0) A_1)))
 (let ((?x3298 (+ A_4 ?x460 A_2 ?x449 L_1 ?x308 loss_rate_tol)))
 (let (($x140623 (not (<= 0.0 ?x3298))))
 (let ((?x16142 (* 3.0 loss_rate_tol)))
 (let ((?x325 (* (- 1.0) L_3)))
 (let ((?x416 (* (- 1.0) S_1)))
 (let ((?x8110 (* (- 3.0) A_5)))
 (let ((?x8443 (* 3.0 A_4)))
 (let (($x151590 (not (<= (- 10.0) (+ ?x8443 ?x8110 A_3 ?x416 ?x325 ?x16142)))))
 (let (($x150634 (<= 0.0 (+ (* (/ 3.0 4.0) A_4) (* (- (/ 3.0 4.0)) A_5) S_2 (* (- 1.0) S_0)))))
 (let (($x150635 (not $x150634)))
 (let (($x146384 (not (<= 0.0 (+ (* 2.0 A_4) ?x325 ?x460 ?x416)))))
 (let ((?x3407 (* (- (/ 1.0 2.0)) L_3)))
 (let ((?x1901 (* (- (/ 1.0 2.0)) L_1)))
 (let ((?x1693 (* (/ 1.0 2.0) A_1)))
 (let ((?x3406 (* (/ 1.0 2.0) A_3)))
 (let (($x138431 (not (<= 0.0 (+ A_4 ?x460 ?x3406 ?x1693 ?x422 ?x1901 ?x3407 loss_rate_tol)))))
 (let (($x151502 (not (<= 0.0 (+ (* (/ 3.0 4.0) A_4) (* (- (/ 3.0 4.0)) A_5) S_3 ?x416)))))
 (let (($x150794 (not (<= 0.0 (+ (* (/ 1.0 2.0) A_4) (* (- (/ 1.0 2.0)) A_5) S_2 ?x416)))))
 (let ((?x3426 (* 2.0 loss_rate_tol)))
 (let ((?x3369 (* (- 2.0) L_3)))
 (let ((?x1282 (* 2.0 L_2)))
 (let ((?x1279 (* (- 2.0) A_2)))
 (let ((?x3367 (* 2.0 A_3)))
 (let ((?x3423 (* (- 2.0) A_5)))
 (let ((?x1932 (* 2.0 A_4)))
 (let (($x136635 (not (<= 0.0 (+ ?x1932 ?x3423 ?x3367 ?x1279 ?x1282 ?x3369 ?x3426)))))
 (let (($x143562 (<= 0.0 (+ (* (/ 9.0 4.0) A_4) ?x325 (* (- (/ 5.0 4.0)) A_5) (* (- 1.0) S_0)))))
 (let (($x143563 (not $x143562)))
 (let ((?x1923 (* (/ 3.0 2.0) loss_rate_tol)))
 (let ((?x10581 (* (- (/ 3.0 2.0)) L_2)))
 (let ((?x1649 (* (- (/ 1.0 2.0)) S_0)))
 (let ((?x429 (* (- 1.0) S_3)))
 (let ((?x10573 (* (/ 3.0 2.0) A_2)))
 (let ((?x1920 (* (- (/ 3.0 2.0)) A_5)))
 (let ((?x1919 (* (/ 3.0 2.0) A_4)))
 (let (($x150478 (not (<= 0.0 (+ ?x1919 ?x1920 ?x10573 ?x429 ?x1649 ?x10581 ?x1923)))))
 (let (($x140460 (not (<= (- 5.0) (+ (* (/ 1.0 4.0) A_4) (* (- (/ 1.0 4.0)) A_5))))))
 (let (($x142844 (not (<= 0.0 (+ (* (/ 5.0 4.0) A_4) (* (- (/ 1.0 4.0)) A_5) (* (- 1.0) A_3))))))
 (let ((?x1699 (* (/ 1.0 2.0) loss_rate_tol)))
 (let ((?x1417 (* (/ 1.0 2.0) S_0)))
 (let ((?x1732 (* (- (/ 1.0 2.0)) A_5)))
 (let ((?x1897 (* (/ 1.0 2.0) A_4)))
 (let (($x148476 (not (<= 0.0 (+ ?x1897 ?x1732 ?x3406 ?x422 ?x1417 ?x3407 ?x1699)))))
 (let (($x4846 (<= (+ A_1 ?x422 (* (- 1.0) L_1)) 0.0)))
 (let ((?x1922 (* (- (/ 3.0 2.0)) L_1)))
 (let ((?x1308 (* (- 1.0) S_0)))
 (let ((?x1739 (* (- (/ 1.0 2.0)) S_3)))
 (let ((?x1921 (* (/ 3.0 2.0) A_1)))
 (let (($x139916 (not (<= 0.0 (+ ?x1919 ?x1920 ?x1921 ?x1739 ?x1308 ?x1922 ?x1923)))))
 (let (($x136783 (<= 0.0 (+ (* (- 1.0) A_2) S_3 L_2))))
 (let (($x138903 (not (<= (- 5.0) (+ ?x1932 ?x3423 A_3 ?x449 L_1 ?x325 ?x3426)))))
 (let (($x134455 (not (<= 0.0 (+ ?x1932 ?x3423 ?x3367 (* (- 2.0) S_3) ?x3369 ?x3426)))))
 (let (($x141526 (<= 0.0 (+ (* (/ 1.0 4.0) A_4) (* (- (/ 1.0 4.0)) A_5) (* (- 1.0) A_0) S_1 L_0))))
 (let (($x141527 (not $x141526)))
 (let (($x148110 (not (<= 0.0 (+ A_4 ?x460 S_3 ?x1308)))))
 (let (($x146937 (not (<= (- 5.0) (+ ?x1932 ?x3423 A_3 ?x422 ?x325 ?x3426)))))
 (let (($x142372 (not (<= 0.0 (+ ?x1932 ?x325 ?x460 (* (- 1.0) A_0) L_0)))))
 (let (($x147643 (<= 0.0 (+ ?x1932 ?x3423 (* 2.0 A_2) ?x429 ?x416 (* (- 2.0) L_2) ?x3426))))
 (let (($x147644 (not $x147643)))
 (let (($x149347 (<= (- 5.0) (+ ?x1919 ?x1920 (* (/ 1.0 2.0) A_2) ?x1649 (* (- (/ 1.0 2.0)) L_2) ?x1923))))
 (let (($x149348 (not $x149347)))
 (let ((?x1733 (* (/ 1.0 2.0) L_1)))
 (let ((?x1652 (* (/ 1.0 2.0) S_2)))
 (let ((?x1742 (* (- (/ 1.0 2.0)) A_1)))
 (let (($x143508 (not (<= (- 5.0) (+ ?x1897 ?x1732 ?x1742 ?x1652 ?x1733 ?x1699)))))
 (let (($x56 (= L_1 L_0)))
 (let (($x146846 (not (<= (- 10.0) (+ ?x8443 ?x8110 A_3 (* (- 1.0) A_0) ?x325 ?x16142 L_0)))))
 (let (($x139112 (<= 0.0 (+ A_4 ?x460 A_1 ?x1308 (* (- 1.0) L_1)))))
 (let ((?x30385 (* (/ 3.0 4.0) loss_rate_tol)))
 (let ((?x5876 (* (- (/ 3.0 4.0)) A_5)))
 (let ((?x138686 (* (- (/ 1.0 4.0)) L_3)))
 (let (($x143106 (<= (- 5.0) (+ A_4 ?x138686 ?x5876 (* (- (/ 1.0 4.0)) A_1) (* (/ 1.0 4.0) L_1) ?x30385))))
 (let (($x143107 (not $x143106)))
 (let (($x138180 (<= 0.0 (+ A_4 ?x460 A_2 ?x416 ?x308))))
 (let (($x66 (= L_2 L_1)))
 (let ((?x15706 (* (/ 2.0 3.0) loss_rate_tol)))
 (let ((?x12112 (* (/ 1.0 3.0) S_3)))
 (let ((?x17465 (* (- (/ 2.0 3.0)) A_5)))
 (let ((?x5343 (* (/ 2.0 3.0) A_4)))
 (let (($x142268 (<= (- 5.0) (+ ?x5343 ?x17465 (* (- (/ 1.0 3.0)) A_1) ?x12112 (* (/ 1.0 3.0) L_1) ?x15706))))
 (let (($x142269 (not $x142268)))
 (let (($x146436 (<= 0.0 (+ ?x1932 ?x3423 (* 2.0 A_1) ?x422 ?x1308 (* (- 2.0) L_1) ?x3426))))
 (let (($x146442 (not $x146436)))
 (let (($x145563 (not (<= (- 5.0) (+ ?x1932 ?x3423 A_2 (* (- 1.0) A_0) ?x308 ?x3426 L_0)))))
 (let ((?x291 (* (- 1.0) L_1)))
 (let ((?x8937 (* (/ 1.0 2.0) L_2)))
 (let ((?x8094 (* (- (/ 1.0 2.0)) A_2)))
 (let (($x146926 (<= 0.0 (+ ?x1919 ?x3407 ?x460 ?x8094 A_1 ?x8937 ?x422 ?x291 loss_rate_tol))))
 (let (($x146927 (not $x146926)))
 (let ((?x39567 (* 4.0 loss_rate_tol)))
 (let ((?x15207 (* (- 4.0) A_5)))
 (let ((?x11787 (* 4.0 A_4)))
 (let (($x147113 (not (<= (- 15.0) (+ ?x11787 ?x15207 A_3 ?x1308 ?x325 ?x39567)))))
 (let (($x147085 (not (<= (- 5.0) (+ ?x1932 ?x3423 A_1 ?x1308 ?x291 ?x3426)))))
 (let (($x141375 (not (<= 0.0 (+ ?x1919 ?x325 ?x1732 (* (- 1.0) A_2) L_2)))))
 (let (($x139474 (<= 0.0 (+ ?x1932 ?x325 ?x460 A_1 (* (- 2.0) S_3) ?x291 loss_rate_tol))))
 (let (($x139475 (not $x139474)))
 (let ((?x451 (* (- 1.0) A_2)))
 (let (($x153526 (<= 0.0 (+ A_4 ?x460 ?x451 A_1 S_3 L_2 ?x422 ?x291 loss_rate_tol))))
 (let (($x153527 (not $x153526)))
 (let (($x141942 (<= 0.0 (+ ?x5343 ?x17465 (* (/ 2.0 3.0) A_1) ?x12112 ?x422 (* (- (/ 2.0 3.0)) L_1) ?x15706))))
 (let (($x141943 (not $x141942)))
 (let (($x138019 (not (<= 0.0 (+ (* (/ 7.0 4.0) A_4) ?x325 ?x5876 ?x449 L_1)))))
 (let (($x151042 (not (<= (- 5.0) (+ A_4 ?x460 A_2 ?x429 ?x308 loss_rate_tol)))))
 (let (($x145473 (not (<= 0.0 (+ (* (- 1.0) A_4) A_5 ?x451 S_1 L_2)))))
 (let ((?x957 (+ L_1 ?x308)))
 (let (($x644 (<= 0.0 ?x957)))
 (let (($x150638 (not (<= 0.0 (+ ?x1897 ?x1732 (* (- 1.0) A_0) S_2 L_0)))))
 (let (($x141073 (not (<= 0.0 (+ (* (/ 1.0 4.0) A_4) (* (- (/ 1.0 4.0)) A_5) ?x451 S_3 L_2)))))
 (let (($x143112 (<= 0.0 (+ A_4 ?x138686 ?x5876 (* (/ 3.0 4.0) A_1) ?x422 (* (- (/ 3.0 4.0)) L_1) ?x30385))))
 (let (($x143113 (not $x143112)))
 (let ((?x1288 (* (- 2.0) L_2)))
 (let ((?x1335 (* (- 1.0) A_0)))
 (let ((?x1285 (* 2.0 A_2)))
 (let (($x145271 (not (<= 0.0 (+ ?x1932 ?x3423 ?x1285 ?x1335 ?x429 ?x1288 ?x3426 L_0)))))
 (let (($x139364 (not (<= 0.0 (+ (* (/ 1.0 4.0) A_4) (* (- (/ 1.0 4.0)) A_5) ?x449 L_1 S_2)))))
 (let (($x136961 (not (<= 0.0 (+ A_4 ?x460 A_1 ?x1335 ?x291 loss_rate_tol L_0)))))
 (let (($x626 (not (<= 0.0 (+ A_4 ?x460 A_1 ?x416 ?x291 loss_rate_tol)))))
 (let (($x159890 (or $x134306 $x146384 (not (<= (- 20.0) (+ (* 5.0 A_4) ?x325 ?x15207 ?x416 ?x39567))))))
 (let (($x143655 (not (<= (- 5.0) (+ A_4 ?x460 A_1 ?x422 ?x291 loss_rate_tol)))))
 (let (($x142882 (not (<= 0.0 (+ (* (/ 7.0 4.0) A_4) ?x325 ?x5876 ?x422)))))
 (let ((?x54275 (* (- (/ 2.0 3.0)) L_2)))
 (let ((?x50853 (* (/ 2.0 3.0) A_2)))
 (let ((?x6501 (* (- (/ 1.0 3.0)) L_3)))
 (let (($x147555 (not (<= 0.0 (+ A_4 ?x6501 ?x17465 ?x50853 ?x429 ?x54275 ?x15706)))))
 (let (($x140370 (not (<= 0.0 (+ ?x1897 ?x1732 ?x449 S_3 L_1)))))
 (let (($x159526 (or $x134306 $x140370 (not (<= (- 10.0) (+ ?x1932 ?x3423 ?x449 S_3 L_1 ?x3426))))))
 (let (($x159525 (or $x134306 (not (<= (- 15.0) (+ ?x8443 ?x8110 ?x1335 S_3 ?x16142 L_0))) $x145463)))
 (let (($x159335 (or $x134306 $x139364 (not (<= (- 5.0) (+ A_4 ?x460 ?x449 S_2 L_1 loss_rate_tol))))))
 (let (($x143953 (not (<= 0.0 (+ ?x1919 ?x325 ?x1732 ?x429)))))
 (let (($x149403 (not (<= (- 5.0) (+ A_4 ?x460 ?x451 S_3 L_2 loss_rate_tol)))))
 (let (($x146695 (not (<= 0.0 (+ ?x1919 ?x1732 (* (- 1.0) A_3) ?x1693 ?x1739 ?x1901 ?x1699)))))
 (let (($x152035 (<= 0.0 (+ ?x1932 ?x460 (* (- 1.0) A_3) A_1 ?x422 ?x291 loss_rate_tol))))
 (let (($x152036 (not $x152035)))
 (let (($x157356 (or $x134306 $x141527 (not (<= (- 5.0) (+ A_4 ?x460 ?x1335 S_1 loss_rate_tol L_0))))))
 (let ((?x31168 (* 5.0 loss_rate_tol)))
 (let ((?x38538 (* (- 5.0) A_5)))
 (let ((?x45859 (* 6.0 A_4)))
 (let (($x142386 (not (<= (- 5.0) (+ ?x1932 ?x460 (* (- 1.0) A_3) loss_rate_tol)))))
 (let (($x150717 (<= 0.0 (+ ?x1932 ?x460 (* (- 1.0) A_3) A_2 ?x429 ?x308 loss_rate_tol))))
 (let (($x150718 (not $x150717)))
 (let (($x148212 (<= (- 5.0) (+ A_4 ?x6501 ?x17465 (* (- (/ 1.0 3.0)) A_2) (* (/ 1.0 3.0) L_2) ?x15706))))
 (let (($x178383 (or $x66 $x134306 (not (<= (- 5.0) (+ ?x1897 ?x1732 ?x8094 (* (/ 1.0 2.0) S_3) ?x8937 ?x1699))))))
 (let (($x76 (= L_3 L_2)))
 (let (($x153789 (or $x76 $x134306 (not (<= (- 10.0) (+ ?x1932 ?x460 (* (- 1.0) A_3) loss_rate_tol))))))
 (let ((?x3374 (* (/ 1.0 2.0) L_3)))
 (let ((?x3370 (* (- (/ 1.0 2.0)) A_3)))
 (let (($x141954 (not (<= 0.0 (+ A_4 ?x460 ?x3370 ?x1921 ?x1308 ?x1922 ?x3374 loss_rate_tol)))))
 (let ((?x3403 (* 2.0 L_3)))
 (let ((?x1281 (* (- 2.0) L_1)))
 (let ((?x1280 (* 2.0 A_1)))
 (let ((?x3400 (* (- 2.0) A_3)))
 (let (($x30692 (<= (+ ?x3400 ?x1285 ?x1280 ?x1288 ?x422 ?x1308 ?x1281 ?x3403) 0.0)))
 (let (($x141891 (not (<= 0.0 (+ A_4 ?x460 ?x1285 ?x449 ?x429 L_1 ?x1288 loss_rate_tol)))))
 (let (($x148283 (<= (+ (* (- 1.0) A_3) A_2 ?x308 (* (/ 1.0 2.0) S_1) ?x1649 L_3) (- 5.0))))
 (let (($x152906 (or $x76 (<= (+ (* (- 1.0) A_3) (* 2.0 S_1) ?x1308 L_3) (- 5.0)) $x148283)))
 (let (($x351786 (or (<= (+ A_4 ?x460 A_2 ?x449 ?x308 loss_rate_tol L_0) 0.0) $x134306 $x143964)))
 (let (($x143068 (<= (+ ?x3400 ?x1285 A_1 ?x1288 ?x1308 ?x291 ?x3403) (- 5.0))))
 (let (($x147906 (<= (+ (* (- 1.0) A_3) (* (/ 3.0 2.0) S_2) (* (- (/ 1.0 2.0)) S_1) L_3) (- 5.0))))
 (let (($x4543 (<= (+ (* (- 1.0) A_3) A_2 A_1 ?x308 ?x416 ?x291 L_3) 0.0)))
 (let (($x149704 (<= (- 5.0) (+ A_4 ?x460 (* (- (/ 1.0 2.0)) A_0) ?x1652 loss_rate_tol (* (/ 1.0 2.0) L_0)))))
 (let (($x141268 (not (<= 0.0 (+ A_4 ?x460 ?x451 ?x1280 ?x1308 ?x1281 L_2 loss_rate_tol)))))
 (let (($x149689 (<= (+ (* (- 1.0) A_3) (* (/ 4.0 3.0) S_2) (* (- (/ 1.0 3.0)) S_0) L_3) (- 5.0))))
 (let ((?x21089 (* (/ 1.0 2.0) L_0)))
 (let ((?x16703 (* (/ 3.0 2.0) S_2)))
 (let ((?x25685 (* (- (/ 1.0 2.0)) A_0)))
 (let ((?x454 (* (- 1.0) A_3)))
 (let (($x4588 (<= (+ ?x454 A_2 A_1 ?x1335 ?x308 ?x291 L_3 L_0) 0.0)))
 (let (($x146640 (not (<= 0.0 (+ ?x1897 ?x1732 S_3 ?x422)))))
 (let (($x149443 (or $x134306 (not (<= (- 20.0) (+ (* 5.0 A_4) ?x325 ?x15207 ?x1335 ?x39567 L_0))) $x142372)))
 (let ((?x1296 (* 3.0 L_2)))
 (let ((?x1293 (* (- 3.0) A_2)))
 (let ((?x136993 (+ A_4 ?x325 ?x1293 ?x1280 ?x1281 ?x1296)))
 (let (($x148867 (or $x66 (<= (+ ?x1897 ?x3407 ?x451 ?x1417 L_2) (- 5.0)) (<= ?x136993 (- 15.0)))))
 (let (($x183359 (or $x66 (<= (+ (* (/ 1.0 3.0) A_4) ?x6501 ?x451 (* (/ 2.0 3.0) S_1) L_2) (- 5.0)))))
 (let ((?x1302 (* (- 3.0) L_2)))
 (let ((?x1299 (* 3.0 A_2)))
 (let (($x145375 (not (<= 0.0 (+ A_4 ?x460 ?x3400 ?x1299 ?x1308 ?x1302 ?x3403 loss_rate_tol)))))
 (let (($x141313 (<= (+ ?x454 (* (- 2.0) A_0) (* 3.0 S_1) L_3 (* 2.0 L_0)) (- 5.0))))
 (let (($x147691 (or $x76 $x141313 (<= (+ ?x454 A_2 ?x1335 ?x308 S_1 L_3 L_0) (- 5.0)))))
 (let (($x139682 (not (<= 0.0 (+ A_4 ?x460 ?x454 ?x1285 ?x416 ?x1288 L_3 loss_rate_tol)))))
 (let ((?x950 (+ L_2 ?x325)))
 (let (($x137605 (<= 0.0 ?x950)))
 (let (($x19264 (<= (+ (* (- (/ 3.0 2.0)) A_3) ?x1921 S_2 ?x1308 ?x1922 (* (/ 3.0 2.0) L_3)) 0.0)))
 (let ((?x24571 (* (- (/ 5.0 2.0)) L_1)))
 (let ((?x21104 (* (/ 5.0 2.0) A_1)))
 (let ((?x21103 (* (- (/ 5.0 2.0)) A_3)))
 (let ((?x3098 (* (/ 3.0 2.0) L_3)))
 (let (($x142388 (<= (+ A_4 ?x3098 ?x21103 ?x21104 ?x1308 ?x24571) 0.0)))
 (let ((?x2991 (* 3.0 L_3)))
 (let ((?x1295 (* (- 3.0) L_1)))
 (let ((?x1863 (* (- 2.0) S_1)))
 (let ((?x1878 (* 2.0 S_3)))
 (let ((?x1294 (* 3.0 A_1)))
 (let ((?x1791 (* (- 3.0) A_3)))
 (let ((?x1309 (* (- 4.0) L_1)))
 (let ((?x1307 (* 4.0 A_1)))
 (let ((?x3419 (* (- 4.0) A_3)))
 (let (($x16147 (<= (+ ?x1791 ?x1294 (* (- 2.0) A_0) ?x1878 ?x1295 ?x2991 (* 2.0 L_0)) 0.0)))
 (let (($x139586 (<= 0.0 (+ A_4 ?x460 ?x454 ?x1285 ?x1335 ?x1288 L_3 loss_rate_tol L_0))))
 (let (($x142427 (<= (+ ?x1932 ?x3403 ?x3419 ?x1307 (* (- 2.0) A_0) ?x1309 (* 2.0 L_0)) 0.0)))
 (let (($x182443 (or $x66 (<= (+ ?x451 A_1 ?x291 L_2) (- 10.0)) (<= (+ ?x451 S_0 L_2) (- 15.0)))))
 (let (($x4258 (<= (+ ?x1280 (* (- 2.0) S_3) ?x1281) (- 10.0))))
 (let ((?x139340 (+ A_4 L_3 ?x3400 A_2 ?x308)))
 (let (($x139339 (<= ?x139340 (- 10.0))))
 (let (($x136399 (<= (+ (* (/ 3.0 4.0) A_4) (* (/ 1.0 4.0) L_3) ?x454 (* (/ 1.0 4.0) S_0)) (- 5.0))))
 (let (($x146287 (or $x76 $x139339 (<= (+ ?x5343 (* (/ 1.0 3.0) L_3) ?x454 (* (/ 1.0 3.0) S_1)) (- 5.0)))))
 (let ((?x3420 (* 4.0 L_3)))
 (let ((?x2372 (* (- 4.0) L_2)))
 (let ((?x2618 (* 4.0 A_2)))
 (let (($x140133 (not (<= (- 5.0) (+ A_4 ?x460 A_3 ?x451 L_2 ?x325 loss_rate_tol)))))
 (let ((?x9040 (* (- 5.0) L_2)))
 (let ((?x9010 (* 5.0 A_2)))
 (let ((?x9003 (* (- 5.0) A_3)))
 (let (($x1312 (<= (+ (* (- 4.0) A_2) ?x1307 S_3 ?x1308 ?x1309 (* 4.0 L_2)) 0.0)))
 (let (($x141380 (<= (+ A_4 ?x325 (* (- 4.0) A_2) ?x1307 ?x416 ?x1309 (* 4.0 L_2)) 0.0)))
 (let ((?x2755 (* 5.0 L_2)))
 (let ((?x2730 (* (- 5.0) L_1)))
 (let ((?x2768 (* 5.0 A_1)))
 (let ((?x1092 (* (- 5.0) A_2)))
 (let (($x144052 (or $x66 (<= (+ ?x1279 A_1 S_3 ?x291 ?x1282) (- 10.0)) (<= (+ ?x451 (* (/ 2.0 3.0) S_3) (* (/ 1.0 3.0) S_0) L_2) (- 5.0)))))
 (let (($x185591 (or $x66 $x134306 (<= (+ A_4 ?x460 A_3 ?x451 L_2 ?x325 loss_rate_tol) (- 5.0)))))
 (let (($x338531 (or $x66 (<= (+ A_3 ?x451 A_1 ?x429 ?x291 L_2 ?x325) 0.0) (<= (+ ?x3367 ?x1279 ?x429 S_0 ?x1282 ?x3369) 0.0))))
 (let ((?x1310 (* 4.0 L_2)))
 (let ((?x1306 (* (- 4.0) A_2)))
 (let (($x174684 (or $x56 (<= (+ (* (/ 1.0 4.0) A_4) ?x138686 ?x449 (* (/ 3.0 4.0) S_0) L_1) (- 5.0)))))
 (let ((?x1287 (* 2.0 L_1)))
 (let ((?x3366 (* 2.0 S_0)))
 (let ((?x1933 (* (- 2.0) S_3)))
 (let ((?x1286 (* (- 2.0) A_1)))
 (let (($x177068 (or $x76 $x139339 (<= (+ A_4 ?x3374 (* (- (/ 3.0 2.0)) A_3) ?x1693 ?x1901) (- 5.0)))))
 (let (($x143066 (or $x4846 (<= (+ A_4 ?x325 ?x451 L_2 (* (- 2.0) S_2) ?x3366) 0.0))))
 (let (($x142865 (or $x66 (<= (+ ?x451 (* (/ 1.0 2.0) S_3) (* (/ 1.0 2.0) S_1) L_2) (- 5.0)))))
 (let (($x175886 (or $x66 (<= (+ A_3 ?x1279 A_1 ?x291 ?x1282 ?x325) (- 5.0)) (<= (+ ?x3367 ?x1293 S_0 ?x1296 ?x3369) (- 5.0)))))
 (let (($x130371 (not $x137605)))
 (let ((?x3436 (* 2.0 L_0)))
 (let ((?x3401 (* 2.0 S_2)))
 (let ((?x3435 (* (- 2.0) A_0)))
 (let (($x139530 (<= (+ A_4 ?x454 A_1 ?x429 ?x291) 0.0)))
 (let ((?x8947 (* (- (/ 1.0 2.0)) L_2)))
 (let ((?x10268 (* (/ 1.0 2.0) A_2)))
 (let (($x166304 (or $x76 (<= (+ ?x1897 ?x3374 ?x454 ?x10268 A_1 ?x8947 ?x422 ?x291) 0.0) (<= (+ A_4 ?x3374 (* (- (/ 3.0 2.0)) A_3) ?x1921 ?x422 ?x1922) 0.0))))
 (let (($x185649 (or $x4846 (<= (+ (* (/ 1.0 4.0) A_4) ?x138686 ?x422 (* (/ 3.0 4.0) S_0)) 0.0))))
 (let (($x140971 (or $x66 (<= (+ A_4 ?x454 ?x451 A_1 ?x291 L_2) (- 5.0)) (<= (+ ?x1932 ?x3400 ?x451 S_0 L_2) (- 5.0)))))
 (let (($x170145 (or $x56 (<= (+ ?x3406 (* (- (/ 3.0 2.0)) A_1) S_0 (* (/ 3.0 2.0) L_1) ?x3407) (- 5.0)))))
 (let (($x133822 (<= 0.0 (+ A_3 ?x1279 ?x449 (* 2.0 S_1) L_1 ?x1282 ?x325))))
 (let (($x139491 (or $x136783 (<= (+ A_4 ?x325 ?x1933 S_0) 0.0) (<= (+ ?x1932 ?x3369 ?x1307 (* (- 6.0) S_3) ?x1309) 0.0))))
 (let (($x337923 (or $x76 $x133822 (<= (+ ?x454 A_1 ?x3435 (* 2.0 S_1) ?x291 L_3 ?x3436) 0.0))))
 (let (($x169245 (or $x56 $x134306 (not (<= (- 5.0) (+ A_4 ?x460 ?x3406 ?x1742 ?x1733 ?x3407 loss_rate_tol))))))
 (let (($x340234 (or $x56 (<= (+ A_3 ?x449 ?x1933 (* 2.0 S_1) L_1 ?x325) 0.0) $x136783)))
 (let (($x136812 (or $x136783 (<= (+ A_4 ?x325 (* (- 3.0) S_3) (* 2.0 S_1)) 0.0))))
 (let (($x128 (>= S_1 S_0)))
 (let (($x131 (>= S_2 S_1)))
 (let (($x134 (>= S_3 S_2)))
 (let (($x142 (>= A_1 A_0)))
 (let (($x143 (>= A_2 A_1)))
 (let (($x144 (>= A_3 A_2)))
 (let (($x145 (>= A_4 A_3)))
 (let (($x146 (>= A_5 A_4)))
 (and (<= (+ A_4 ?x325) S_4) $x146 $x145 $x144 $x143 $x142 $x134 $x131 $x128 (or $x56 (not (<= 0.0 (+ ?x291 L_0)))) (or $x66 (<= (+ ?x451 A_1 ?x291 L_2) (- 5.0))) $x136812 (or $x136783 (<= (+ ?x429 S_1) (- 5.0))) (or $x56 (<= (+ ?x1285 ?x1286 ?x429 S_0 ?x1287 ?x1288) 0.0)) (or $x56 (<= (+ ?x449 S_1 L_1) (- 5.0))) (or $x56 (<= (+ A_2 ?x449 ?x429 S_1 L_1 ?x308) 0.0)) (or (not $x644) $x66) (or $x76 $x130371) $x340234 $x169245 $x337923 (or $x76 (<= (+ ?x454 S_3 L_3) (- 5.0))) (or $x76 $x134306 $x134455) (or $x66 $x130371 (<= 0.0 (+ ?x454 ?x1285 ?x449 L_1 ?x308))) (or $x56 (<= (+ A_2 ?x449 ?x422 S_0 L_1 ?x308) 0.0)) (or $x56 (<= (+ A_2 ?x1286 S_0 ?x1287 ?x308) (- 5.0))) (or $x66 (<= (+ A_4 ?x325 ?x1279 ?x1280 ?x429 ?x1281 ?x1282) 0.0)) $x139491 (or $x66 (<= (+ ?x451 S_2 L_2) (- 5.0))) (or $x76 (<= (+ A_4 L_3 ?x3400 ?x1285 ?x429 ?x1288) 0.0)) (or $x66 (<= 0.0 (+ ?x454 ?x1285 ?x449 ?x1288 L_1 L_3))) (or $x66 (<= (+ ?x1279 ?x1280 S_1 ?x1308 ?x1281 ?x1282) 0.0)) (or $x76 (<= (+ ?x454 A_1 S_3 ?x422 ?x291 L_3) 0.0)) (or $x56 (<= (+ A_4 ?x454 ?x449 S_0 L_1) (- 5.0))) (or $x4846 (<= (+ A_4 ?x454 ?x422 S_0) 0.0)) (or $x76 $x4588 (not $x133822)) (or $x56 $x76 (<= 0.0 (+ A_3 ?x1279 A_1 ?x291 ?x1282 ?x325))) (or $x66 (<= (+ ?x1293 ?x1294 ?x1335 S_3 ?x1295 ?x1296 L_0) 0.0)) (or $x76 (<= ?x139340 (- 5.0))) $x170145 (or $x56 (<= (+ A_3 ?x451 ?x449 L_2 S_0 L_1 ?x325) 0.0)) (or $x4846 (<= (+ ?x422 S_0) (- 5.0))) (or $x134306 $x136961 $x140460) $x140971 (or $x66 (<= (+ ?x1279 ?x1280 S_3 ?x422 ?x1281 ?x1282) 0.0)) (or $x66 (<= (+ ?x1279 A_1 S_3 ?x291 ?x1282) (- 5.0))) (or $x4846 (<= (+ ?x12112 ?x422 (* (/ 2.0 3.0) S_0)) 0.0)) (or $x56 (<= (+ ?x449 ?x12112 (* (/ 2.0 3.0) S_0) L_1) (- 5.0))) (or $x66 (<= (+ A_3 ?x1279 S_1 ?x1282 ?x325) (- 5.0))) (or $x76 (<= (+ ?x3400 ?x1285 S_3 ?x422 ?x1288 ?x3403) 0.0)) (or $x66 (<= (+ A_4 ?x325 ?x1293 ?x1294 ?x422 ?x1295 ?x1296) 0.0)) (or $x66 (<= ?x136993 (- 5.0))) $x185649 (or $x134306 (not (<= (- 10.0) (+ A_4 ?x460 loss_rate_tol))) $x140460) (or $x56 (<= (+ ?x3406 ?x1742 ?x422 S_0 ?x1733 ?x3407) 0.0)) (or $x136783 (<= (+ A_4 ?x454 ?x429 S_1) 0.0)) (or $x76 $x136783 $x139530) $x166304 (or $x134306 $x136635 $x141375) (or $x136783 $x139530 (<= (+ A_4 ?x454 ?x1739 ?x1417) 0.0)) (or $x76 (<= (+ ?x3400 ?x1280 ?x3435 ?x3401 ?x1281 ?x3403 ?x3436) 0.0)) (or $x56 (<= (+ ?x449 ?x1652 ?x1417 L_1) (- 5.0))) (or $x66 (<= (+ A_4 ?x454 ?x451 A_1 ?x291 L_2) 0.0)) (or $x76 (<= (+ ?x3400 ?x1285 ?x449 S_3 L_1 ?x1288 ?x3403) 0.0)) (or $x76 (<= (+ ?x454 ?x449 L_1 ?x3401 L_3) (- 5.0))) (or $x56 (<= (+ ?x449 S_0 L_1) (- 10.0))) (or $x56 (<= (+ A_3 ?x449 ?x429 S_0 L_1 ?x308) 0.0) $x130371) (or $x66 (<= (+ A_3 ?x451 ?x429 S_1 L_2 ?x325) 0.0)) $x175886 $x142865 (or $x76 (<= (+ ?x1791 ?x1299 ?x1335 S_3 ?x1302 ?x2991 L_0) 0.0)) (or $x76 (<= (+ ?x3400 ?x1285 ?x1335 S_2 ?x1288 ?x3403 L_0) 0.0)) (or $x134306 $x141375 (not (<= (- 10.0) (+ ?x8443 ?x325 ?x3423 ?x451 L_2 ?x3426)))) $x143066 (or $x4846 (<= (+ ?x451 S_3 L_2 ?x422 S_0) 0.0)) (or $x56 (<= (+ ?x451 ?x449 S_3 L_2 S_0 L_1) (- 5.0))) (or $x56 (<= (+ ?x1897 ?x3407 ?x8094 ?x449 ?x8937 S_0 L_1) (- 5.0))) $x177068 (or $x66 (<= (+ ?x451 A_1 ?x1335 S_1 ?x291 L_2 L_0) 0.0)) (or $x66 (<= (+ ?x1279 ?x1280 ?x1335 S_2 ?x1281 ?x1282 L_0) 0.0)) (or $x76 (<= (+ ?x1897 ?x3374 ?x454 ?x1652) (- 5.0))) (or $x56 (<= (+ ?x3367 ?x1286 ?x1933 ?x3366 ?x1287 ?x3369) 0.0)) (or $x76 (<= (+ ?x3400 ?x1280 ?x3401 ?x1863 ?x1281 ?x3403) 0.0)) (or $x134306 $x140460 $x143655) $x174684 (or $x66 (<= (+ A_4 ?x325 ?x1306 ?x1307 ?x1335 ?x1309 ?x1310 L_0) 0.0)) (or $x76 (<= (+ ?x454 A_2 ?x1335 S_1 ?x308 L_3 L_0) 0.0)) (or $x136783 (<= (+ ?x1335 ?x429 (* 2.0 S_1) L_0) 0.0)) (or $x76 (<= (+ A_4 ?x3403 ?x1791 ?x1299 ?x422 ?x1302) 0.0)) $x338531 (or $x76 (<= (+ ?x1791 ?x1299 S_3 ?x416 ?x1302 ?x2991) 0.0)) $x185591 (or $x66 (<= (+ ?x1279 ?x1280 S_2 ?x416 ?x1281 ?x1282) 0.0)) (or $x66 (<= (+ ?x451 ?x1335 (* 2.0 S_1) L_2 L_0) (- 5.0))) (or $x136783 (<= (+ ?x429 (* (/ 3.0 2.0) S_1) ?x1649) 0.0)) (or $x66 (<= (+ ?x1293 ?x1294 S_2 ?x1308 ?x1295 ?x1296) 0.0)) $x144052 (or $x66 (<= (+ ?x451 (* (/ 3.0 2.0) S_1) ?x1649 L_2) (- 5.0))) (or $x66 (<= (+ A_4 ?x325 ?x1092 ?x2768 ?x1308 ?x2730 ?x2755) 0.0)) (or $x626 $x134306 $x140460) (or $x76 (<= (+ ?x3400 ?x1285 S_2 ?x416 ?x1288 ?x3403) 0.0)) (or $x626 $x644 $x139112) (or $x76 (<= (+ ?x454 A_2 ?x449 L_1 S_2 ?x308 L_3) 0.0)) (or $x66 $x141380) (or $x66 $x4846 (<= (+ A_3 ?x451 ?x422 S_0 L_2 ?x325) 0.0)) (or $x66 (<= (+ ?x1293 ?x1294 S_3 ?x416 ?x1295 ?x1296) 0.0)) (or $x66 $x1312) (or $x76 (<= (+ ?x3400 ?x1285 S_1 ?x1308 ?x1288 ?x3403) 0.0)) (or $x76 (<= (+ A_4 ?x3420 ?x9003 ?x9010 ?x1308 ?x9040) 0.0)) (or $x76 (<= (+ A_4 ?x2991 ?x3419 ?x2618 ?x1335 ?x2372 L_0) 0.0)) (or $x76 $x19264 $x136783) (or $x76 $x19264 $x143068) (or $x56 $x76 (<= (+ ?x3370 ?x1742 S_2 ?x1733 ?x3374) (- 5.0))) (or $x76 (<= (+ ?x3400 ?x1280 S_3 ?x1308 ?x1281 ?x3403) 0.0) $x143068) (or $x76 (<= (+ ?x3400 ?x1280 S_3 ?x1308 ?x1281 ?x3403) 0.0) $x30692) (or $x76 $x142388 $x30692) (or $x76 $x142388 $x143068) (or $x76 (<= (+ ?x454 A_1 S_1 ?x1308 ?x291 L_3) 0.0) $x136783) (or $x76 $x136783 $x142388) (or $x56 $x134306 $x136961) (or $x66 (<= (+ ?x451 S_1 L_2) (- 10.0))) (or $x76 (<= (+ A_4 ?x3403 ?x1791 ?x1299 ?x449 L_1 ?x1302) 0.0)) (or $x66 $x134306 $x140133) (or $x76 (<= (+ ?x1791 ?x1299 S_2 ?x1308 ?x1302 ?x2991) 0.0)) (or $x76 (<= (+ A_4 ?x2991 ?x3419 ?x2618 ?x416 ?x2372) 0.0)) (or $x76 (<= (+ ?x3419 ?x2618 S_3 ?x1308 ?x2372 ?x3420) 0.0)) $x146287 (or $x76 (<= (+ ?x1932 L_3 ?x1791 A_1 ?x291) (- 15.0)) $x136399 $x139339) (or $x136783 (<= (+ ?x1739 ?x1417) (- 5.0)) $x4258) $x182443 (or $x76 $x4588 $x142427) (or $x76 (<= (+ ?x454 A_1 S_1 ?x1308 ?x291 L_3) 0.0) $x143068) (or $x76 $x134306 (not $x139586)) (or $x644 $x134306 $x140623) (or $x76 $x4588 $x16147) (or $x76 (<= (+ ?x454 A_1 S_1 ?x1308 ?x291 L_3) 0.0) $x4588) (or $x76 $x4543 (<= (+ ?x1932 ?x3403 ?x3419 ?x1307 ?x1863 ?x1309) 0.0)) (or $x76 $x4543 (<= (+ ?x1791 ?x1294 ?x1878 ?x1863 ?x1295 ?x2991) 0.0)) (or $x76 $x4543 $x19264) (or $x76 $x4543 $x142388) (or $x76 $x4543 (<= (+ ?x3400 ?x1280 S_3 ?x1308 ?x1281 ?x3403) 0.0)) (or $x76 $x4588 (<= (+ ?x3400 ?x1280 S_3 ?x1308 ?x1281 ?x3403) 0.0)) (or $x76 $x4588 $x142388) (or $x76 $x4588 $x19264) (or $x76 (<= (+ ?x454 A_1 S_1 ?x1308 ?x291 L_3) 0.0) $x30692) (or $x134306 $x137605 $x139682) $x147691 (or $x644 $x139448 $x145473) (or $x76 $x134306 $x145375) (or $x66 $x141268 $x145473) $x183359 (or $x66 (<= (+ A_4 ?x454 ?x451 S_1 L_2) (- 5.0))) $x148867 (or $x134306 $x137605 $x138431) (or $x56 $x139112 $x143508) (or $x76 $x134306 $x136961) (or $x134306 $x139448 $x142372) (or $x134306 $x140460 $x147085) (or $x134306 $x139448 $x143964) (or $x66 $x136961 $x138180) $x149443 (or $x134306 $x138903 $x140370) (or $x134306 $x146640 (not (<= (- 10.0) (+ ?x1932 ?x3423 S_3 ?x422 ?x3426)))) (or $x134306 (not (<= (- 5.0) (+ ?x1897 ?x1732 ?x1693 ?x1739 ?x1901 ?x1699))) $x140460) (or $x76 $x134306 $x136783 $x141954) (or $x76 $x4588 $x134306 $x141954) (or $x134306 $x140460 $x145563) (or $x134306 $x134455 $x143953) (or $x76 (<= (+ ?x454 ?x25685 ?x16703 L_3 ?x21089) (- 5.0))) (or $x134306 $x141073 $x149403) (or $x134306 $x141527 $x145271) (or $x134306 $x138903 $x139364) (or $x134306 $x138903 $x151502) (or $x134306 $x138903 $x146384) (or $x134306 $x143964 $x147085) (or $x626 $x134306 $x150794) (or $x76 $x149689) (or $x66 $x134306 $x141268) (or $x134306 $x143964 $x146442) (or $x134306 $x146442 $x148110) (or $x134306 (not $x149704) $x150638) (or $x134306 $x141073 $x146442) (or $x134306 $x141073 $x147085) (or $x134306 $x136635 $x141527) (or $x76 $x4543 $x134306 $x141954) (or $x134306 $x136635 $x141073) (or $x134306 $x136635 $x145463) (or $x76 $x147906) (or $x134306 $x143953 $x147555) (or $x626 $x134306 $x148110) (or $x56 $x139112 (not (<= (- 10.0) (+ A_4 ?x460 loss_rate_tol)))) (or $x76 $x134306 $x141954 $x143068) (or $x56 $x134306 $x136783 $x139916) (or $x76 $x134306 $x139448) (or $x626 $x134306 $x142844) $x351786 (or $x134306 $x140460 $x149348) $x152906 (or $x134306 $x139448 $x141527) (or $x134306 $x138019 $x138903) (or $x134306 $x136635 $x137605) (or $x134306 $x146442 $x150635) (or $x56 $x134306 $x141891) (or $x134306 $x136961 $x141527) (or $x134306 $x136961 $x142844) (or $x134306 $x142386 $x142844) (or $x134306 (not (<= (- 15.0) (+ ?x8443 ?x8110 S_3 ?x416 ?x16142))) $x151502) (or $x134306 $x140460 $x151042) (or $x134306 $x141943 $x146640) (or $x56 $x139112 $x142386) (or $x56 $x134306 (not (<= (- 5.0) ?x3298))) (or $x134306 $x145463 $x145563) (or $x76 $x30692 $x134306 $x141954) $x153789 (or $x134306 $x138431 $x148110) (or $x134306 $x138431 $x151502) (or $x134306 $x138431 $x145463) (or $x134306 $x138431 $x146640) (or $x134306 $x138431 $x141527) $x178383 (or $x76 $x134306 $x140623) (or $x134306 $x138431 $x143563) (or $x134306 $x146846 $x150638) (or $x134306 (not (<= (- 5.0) (+ ?x1932 ?x3423 A_2 ?x416 ?x308 ?x3426))) $x150794) (or $x134306 $x138903 $x150638) (or $x134306 $x150794 $x151590) (or $x134306 $x145563 $x150638) (or $x134306 $x139448 $x142882) (or $x134306 $x142882 $x146937) (or $x134306 $x145271 $x150638) (or $x134306 $x142844 $x145271) (or $x66 $x134306 (not $x148212)) (or $x644 $x145473 $x150718) (or $x134306 $x142844 $x150718) (or $x134306 $x139448 $x146640) (or $x134306 $x142372 $x145271) (or $x134306 $x143563 $x145271) (or $x134306 $x143563 $x147644) (or $x134306 $x134455 $x143563) (or $x134306 $x142844 $x152036) (or $x66 $x142386 $x145473) (or $x134306 $x138903 $x143563) (or $x134306 $x143964 $x147113) (or $x134306 $x136783 $x139475 $x143953) (or $x134306 $x139364 $x140623) (or $x134306 $x141527 $x146937) (or $x134306 $x140623 $x141527) (or $x134306 $x141527 $x145563) (or $x134306 $x138903 $x141527) (or $x134306 $x138903 $x148110) (or $x134306 $x148110 $x151590) (or $x134306 $x146846 $x148110) (or $x66 $x138180 (not (<= (- 10.0) (+ A_4 ?x460 loss_rate_tol)))) (or $x134306 $x136783 $x142844 $x146695) (or $x134306 $x142372 $x146937) (or $x134306 $x138431 $x142372) (or $x134306 $x139448 $x142844) (or $x134306 $x140623 $x142844) (or $x134306 $x142844 $x147085) (or $x134306 $x136783 $x139916 $x140460) (or $x134306 $x147085 $x150635) (or $x134306 $x136961 $x150635) (or $x56 $x134306 $x147085) (or $x134306 $x136783 $x139916 $x150635) (or $x134306 $x137605 $x151590) (or $x134306 $x143563 $x151590) (or $x134306 $x143563 (not (<= (- 25.0) (+ ?x45859 ?x325 ?x38538 ?x1308 ?x31168)))) (or $x134306 $x137605 $x146846) (or $x134306 $x141527 $x146846) (or $x134306 $x136961 $x143563) (or $x134306 $x136961 $x148110) (or $x134306 $x136961 $x143964) (or $x134306 $x136961 $x142372) (or $x134306 $x136961 $x145463) (or $x76 $x626 $x134306) (or $x4846 $x134306 $x137605 $x148476) (or $x134306 $x137605 $x138903) (or $x134306 $x138903 $x142372) (or $x56 $x626 $x134306) (or $x626 $x134306 $x146384) (or $x56 $x139112 $x143107) $x157356 (or $x134306 $x134455 $x142882) (or $x134306 $x140623 $x151502) (or $x134306 $x140370 $x140623) (or $x134306 $x140623 $x145463) (or $x134306 $x140623 $x150638) (or $x134306 $x140623 $x150635) (or $x134306 $x140623 $x148110) (or $x134306 $x136961 $x141073) (or $x134306 $x147113 $x150635) (or $x626 $x134306 $x151502) (or $x134306 (not (<= (- 5.0) (+ ?x1932 ?x3423 A_2 ?x416 ?x308 ?x3426))) $x151502) (or $x134306 $x148110 $x149348) (or $x134306 $x145563 $x148110) (or $x134306 $x150794 (not (<= (- 10.0) (+ ?x1932 ?x3423 S_2 ?x416 ?x3426)))) (or $x56 $x139112 $x152036) (or $x644 $x138180 $x145563) (or $x56 $x134306 (not (<= (- 5.0) (+ ?x1897 ?x1732 ?x1693 ?x1739 ?x1901 ?x1699)))) (or $x134306 $x145563 $x150635) (or $x134306 $x143563 $x146937) (or $x134306 $x139448 $x143563) (or $x56 $x134455 $x139112) (or $x134306 $x134455 $x139364) (or $x134306 $x134455 $x138019) (or $x134306 $x134455 $x142372) (or $x134306 $x134455 $x150638) (or $x134306 $x134455 $x141527) (or $x134306 $x134455 $x143964) (or $x134306 $x147644 $x150794) (or $x134306 $x134455 $x150635) (or $x134306 $x147644 $x150635) (or $x134306 $x143964 (not (<= (- 10.0) (+ ?x1932 ?x3423 S_1 ?x1308 ?x3426)))) (or $x134306 $x137605 $x146937) (or $x134306 $x143964 $x146937) (or $x134306 $x145463 $x146937) (or $x134306 $x139448 $x148110) (or $x134306 $x140460 (not (<= (- 5.0) (+ ?x1932 ?x3423 A_2 ?x416 ?x308 ?x3426)))) (or $x134306 $x137605 $x147113) (or $x134306 $x138903 $x150635) (or $x134306 $x138019 (not (<= (- 15.0) (+ ?x11787 ?x325 ?x8110 ?x449 L_1 ?x16142)))) (or $x4846 $x134306 $x145463 $x148476) (or $x56 $x136783 $x139112 $x146695) (or $x134306 $x143563 $x146442) (or $x134306 $x143563 $x147085) (or $x56 $x139112 $x149403) (or $x56 $x138431 $x139112) (or $x134306 $x149348 $x150635) (or $x134306 $x136961 $x141375) (or $x626 $x134306 $x141375) (or $x134306 $x143953 (not (<= (- 10.0) (+ ?x8443 ?x325 ?x3423 ?x429 ?x3426)))) (or $x134306 $x142882 $x143113) $x159335 (or $x644 $x145473 $x150478) (or $x134306 $x143563 $x150478) (or $x134306 $x146384 $x147644) (or $x134306 $x143964 $x150478) (or $x644 $x145473 (not (<= (- 5.0) (+ ?x1932 ?x3423 A_2 ?x416 ?x308 ?x3426)))) $x159525 $x159526 (or $x134306 $x148110 (not (<= (- 20.0) (+ ?x11787 ?x15207 S_3 ?x1308 ?x39567)))) (or $x644 $x145473 $x147555) (or $x134306 $x143964 $x145563) (or $x134306 $x147085 $x148110) (or $x134306 $x143964 $x149348) (or $x134306 $x146384 $x146937) (or $x134306 $x142882 (not (<= (- 15.0) (+ ?x11787 ?x325 ?x8110 ?x422 ?x16142)))) (or $x134306 $x138431 $x142882) (or $x4846 $x134306 $x142882 $x148476) (or $x134306 $x136635 $x142882) (or $x56 $x134306 $x143655) (or $x134306 $x140460 $x140623) $x159890 (or $x134306 $x140623 $x142372) (or $x134306 $x136635 $x142372) (or $x134306 $x140460 $x146442) (or $x626 $x134306 $x150635) (or $x626 $x134306 $x143563) (or $x626 $x134306 $x141073) (or $x134306 $x136961 $x150638) (or $x134306 $x136635 $x139364) (or $x644 $x138180 $x145271) (or $x134306 $x145271 $x150635) (or $x134306 $x145271 $x145463) (or $x134306 $x145271 $x148110) (or $x134306 $x143964 $x145271) (or $x134306 $x140460 $x145271) (or $x644 $x145473 $x149348) (or $x56 $x134306 $x146442) (or $x56 $x134306 $x143113) (or $x134306 $x146927 $x148110) (or $x134306 (not (<= (- 15.0) (+ ?x8443 ?x8110 S_2 ?x1308 ?x16142))) $x150635) (or $x134306 $x141073 $x153527) (or $x134306 (not (<= (- 5.0) (+ ?x1932 ?x3423 A_2 ?x416 ?x308 ?x3426))) $x148110) (or $x134306 $x142844 (not (<= (- 5.0) (+ ?x1932 ?x3423 A_2 ?x416 ?x308 ?x3426)))) (or $x134306 (not (<= (- 5.0) (+ ?x1932 ?x3423 A_2 ?x416 ?x308 ?x3426))) $x150635) (or $x134306 $x143563 (not (<= (- 5.0) (+ ?x1932 ?x3423 A_2 ?x416 ?x308 ?x3426)))) (or $x134306 $x136635 $x150638) (or $x134306 $x136635 $x146640) (or $x4846 $x134306 $x146640 $x148476) (or $x56 $x139112 (not (<= (- 10.0) (+ ?x8443 ?x325 ?x3423 ?x451 L_2 ?x3426)))) (or $x134306 $x141375 $x146927) (or $x56 $x139112 $x142269) (or $x644 $x138180 $x147644) (or $x134306 (not (<= (- 5.0) (+ ?x1932 ?x3423 A_2 ?x416 ?x308 ?x3426))) $x146384) (or $x644 $x145473 $x151042) (or $x134306 $x140623 $x146384) (or $x134306 $x136635 $x138019) (or $x134306 $x138019 $x140623) (or $x56 $x134306 $x141943) (or $x56 $x136635 $x139112) (or $x56 $x139112 $x153527) (or $x134306 $x142372 $x146846) (or $x134306 $x143563 $x146846) (or $x134306 $x146846 $x150635) (or $x134306 $x145463 $x146846) (or $x134306 $x146640 $x146937) (or $x134306 $x143563 $x145563) (or $x134306 $x139448 $x140460) (or $x56 $x134306 $x136783 $x139475) (or $x134306 $x136783 $x139916 $x143964) (or $x134306 $x141375 $x146442) (or $x134306 $x141375 $x147085) (or $x134306 $x138903 $x145463) (or $x134306 $x147113 $x148110) (or $x134306 $x143563 $x147113) (or $x134306 $x142844 $x149348) (or $x134306 $x142844 $x145563) (or $x56 $x139112 $x146927) (or $x134306 $x134455 $x146384) (or $x134306 $x142372 $x145563) (or $x134306 $x136635 $x143964) (or $x134306 $x142844 $x146442) (or $x56 $x134306 $x142269) (or $x66 $x134455 $x138180) (or $x56 $x134306 $x143107) (or $x56 $x139112 $x139448) (or $x4846 $x134306 $x148476 $x151502) (or $x134306 $x139448 $x146384) (or $x134306 $x143964 $x146846) (or $x56 $x134306 $x143508) (or $x134306 $x143563 $x149348) (or $x134306 $x142844 $x147644) (or $x134306 $x147644 $x151502) (or $x134306 $x147644 $x148110) (or $x134306 $x140460 $x147644) (or $x4846 $x134306 $x142372 $x148476) (or $x134306 $x150478 $x150635) (or $x134306 $x148110 $x150478) (or $x134306 $x136783 $x139916 $x148110) (or $x134306 $x146937 $x148110) (or $x4846 $x134306 $x141527 $x148476) (or $x134306 $x136635 $x146384) (or $x134306 $x136635 $x140370) (or $x134306 $x136635 $x151502) (or $x134306 $x134455 $x150794) (or $x134306 $x138903 $x150794) (or $x134306 $x138903 $x143964) (or $x134306 $x136783 $x139916 $x142844) (or $x134306 $x136635 $x148110) (or $x134306 $x136635 $x150635) (or $x134306 $x136783 $x139916 $x143563) (or $x134306 $x136635 $x143563) (or $x4846 $x134306 $x146384 $x148476) (or $x134306 $x151502 $x151590) (or $x134306 $x146384 $x151590) (or $x134306 $x146937 $x151502) (or $x134306 $x142844 $x150478) (or $x134306 $x140460 $x150478) (or $x134306 $x138431 $x143964) (or $x134306 $x140623 $x150794) (or $x134306 $x140623 $x143563) (or $x134306 $x136635 $x150794) (or $x134306 $x139448 $x151502) (or $x134306 $x138431 $x146384) (or $x134306 $x150635 $x151590) (or $x134306 $x140623 $x143964) (or $x134306 $x139448 $x145463) $x39 (<= (+ (* (- 1.0) A_4) L_3 S_4) 0.0) (<= (+ ?x1335 S_0 L_0) 0.0) (<= (+ ?x449 S_1 L_1) 0.0) (<= (+ ?x454 S_3 L_3) 0.0) (<= (+ ?x451 L_2 S_2) 0.0)))))))))))))))))))))))))))))))))))))))))))))))))))))))))))))))))))))))))))))))))))))))))))))))))))))))))))))))))))))))))))))))))))))))))))))))))))))))))))))))))))))))))))))))))))))))))))))))))))))))))))))))))))))))))))))))))))))))))))))))))))))))))))))))))))))))))))))))))
(check-sat)
